NAME : berlin52.tsp
TYPE : TOUR
DIMENSION : 52
TOUR_LENGTH : 8235.828188359797
TOUR_SECTION
1
22
32
49
36
35
34
39
40
37
38
48
24
5
15
6
4
25
46
44
16
50
20
23
31
18
3
45
19
41
8
9
10
43
33
51
11
52
14
13
27
12
28
26
47
29
30
2
7
42
21
17
-1
